15 8
2 6 6 2 3 2 8 2 4 5 2 3
2 5 3 3 2 2 6 2 1 0
2 5 4 2 6 5 2 3 1 0
2 6 6 2 3 2 4 5 1 0
2 6 6 2 3 2 8 2 4 7 1 0
2 5 3 2 6 5 2 3 4 7 1 0
6 7 8 7 2 3 1 0
4 5 6 7 4 2 2 5 1 0
2 6 3 2 6 5 2 3 4 7 1 0
2 6 6 2 4 5 1 0
8 2 2 6 4 2 1 0
6 5 2 6 8 7 2 2 1 0
2 5 6 7 4 2 1 0
6 7 2 5 1 0
4 7 2 6 8 2 2 3 1 0